89 0 665 868 333
704 507 941 0 268
833 575 710 209 0
897 23 591 152 209
601 446 561 58 682
754 321 417 545 833
171 85 962 512 739
722 761 506 50 309
63 536 353 906 575
70 845 748 631 89
0 928 63 324 759
951 151 756 263 631
343 241 854 556 799
268 934 127 844 246
885 193 982 433 512
369 978 310 126 919
449 410 166 653 941
682 208 1002 415 914
512 627 246 749 417
1025 723 228 638 520
